500
1000
380
379
378
378
376
375
374
373
372
372
371
370
370
366
366
364
363
363
362
361
361
361
361
361
360
360
359
357
356
356
356
355
353
352
352
350
350
349
347
346
346
346
345
345
344
343
342
342
340
340
339
339
339
339
338
337
335
335
335
333
333
331
331
331
330
330
329
328
328
327
327
325
324
324
324
324
323
321
321
321
320
320
318
316
315
315
314
314
313
311
308
308
308
307
307
306
305
305
304
304
302
302
300
300
299
298
298
297
296
295
292
291
289
289
289
288
288
287
287
287
286
286
286
285
285
284
284
283
283
281
281
280
280
279
278
278
278
277
276
275
274
274
273
272
272
272
271
270
269
268
266
265
265
263
260
259
258
258
258
258
257
257
257
256
255
255
253
253
253
252
251
250
250
249
248
248
246
245
245
244
243
243
242
241
241
238
238
238
237
236
234
234
233
232
232
231
230
230
228
228
228
228
227
226
225
225
225
222
222
222
221
221
220
219
217
216
216
216
215
214
213
213
213
212
212
211
208
208
208
207
206
206
204
203
202
202
201
201
196
195
195
195
195
194
194
193
192
191
191
189
189
189
188
187
186
186
185
184
184
184
183
183
182
182
182
182
181
181
180
180
179
178
177
176
175
175
175
174
173
171
171
170
170
170
170
169
168
168
168
167
167
166
166
166
164
164
164
162
162
162
162
161
161
161
160
158
157
156
155
154
153
152
152
151
150
150
150
149
148
148
148
147
147
147
145
145
145
142
141
139
139
139
139
138
138
138
136
135
134
133
133
132
132
132
131
130
129
129
127
127
125
125
125
124
123
121
121
121
120
119
119
119
118
118
118
117
117
117
117
116
115
115
114
112
112
111
111
111
109
109
109
108
108
107
107
105
104
102
102
100
99
99
99
99
96
95
94
94
93
89
88
87
86
85
85
85
85
84
84
83
83
82
82
82
82
81
81
81
80
79
78
78
78
77
76
76
74
74
73
72
72
71
71
71
69
67
65
64
64
64
64
63
62
61
61
60
59
57
55
55
53
53
52
51
51
51
50
50
49
48
48
48
47
46
46
45
45
45
43
42
42
42
42
40
40
40
40
40
39
38
38
34
34
34
34
33
33
32
32
30
30
30
29
27
27
23
23
22
22
22
